<?xml version = "1.0" encoding="UTF-8" standalone="yes"?>
<CPLEXSolution version="1.2">
 <header
   problemName="IloCplex"
   solutionName="p0"
   solutionIndex="-1"
   objectiveValue="187517.99999999476"
   solutionTypeValue="3"
   solutionTypeString="primal"
   solutionStatusValue="127"
   solutionStatusString="integer feasible solution"
   solutionMethodString="mip"
   primalFeasible="0"
   dualFeasible="0"
   writeLevel="3"/>
 <quality
   epInt="1.0000000000000001e-05"
   epRHS="9.9999999999999995e-07"
   maxIntInfeas="2.000000165480742e-11"
   maxPrimalInfeas="2.2541826183442026e-09"
   maxX="710.00000000221075"
   maxSlack="90.000000000253522"/>
 <variables>
  <variable name="x1" index="0" value="710"/>
  <variable name="w0_0" index="1" value="710"/>
  <variable name="w0_2" index="3" value="710"/>
  <variable name="w1_0" index="5" value="710"/>
  <variable name="w1_1" index="6" value="709.99999999999977"/>
  <variable name="w1_2" index="7" value="710"/>
  <variable name="w3_0" index="13" value="3.7749714465462603e-09"/>
  <variable name="w3_2" index="15" value="709.9999999962248"/>
  <variable name="w4_0" index="17" value="710"/>
  <variable name="w4_3" index="20" value="710"/>
  <variable name="w5_1" index="22" value="710.00000000221075"/>
  <variable name="w5_2" index="23" value="710.00000000199918"/>
  <variable name="w6_0" index="25" value="709.99999999999943"/>
  <variable name="w6_3" index="28" value="710"/>
  <variable name="w7_2" index="31" value="710"/>
  <variable name="w8_0" index="33" value="710"/>
  <variable name="w8_2" index="35" value="710"/>
  <variable name="w9_1" index="38" value="710"/>
  <variable name="w10_3" index="44" value="710"/>
  <variable name="w11_1" index="46" value="710"/>
  <variable name="w11_2" index="47" value="710"/>
  <variable name="w12_2" index="51" value="710"/>
  <variable name="w13_1" index="54" value="710"/>
  <variable name="w14_0" index="57" value="710"/>
  <variable name="w14_1" index="58" value="710"/>
  <variable name="w15_0" index="61" value="1.4200001174913268e-08"/>
  <variable name="w15_3" index="64" value="709.99999999800002"/>
  <variable name="w16_3" index="68" value="710"/>
  <variable name="w17_1" index="70" value="709.99999999999943"/>
  <variable name="w17_2" index="71" value="1.619035822466712e-09"/>
  <variable name="w18_0" index="73" value="710.00000000199998"/>
  <variable name="w18_1" index="74" value="710.00000000199998"/>
  <variable name="w18_2" index="75" value="-2.2541826183442026e-09"/>
  <variable name="w19_2" index="79" value="710"/>
  <variable name="w20_1" index="82" value="710"/>
  <variable name="w20_2" index="83" value="710"/>
  <variable name="w21_0" index="85" value="710"/>
  <variable name="w22_3" index="92" value="709.99999999999932"/>
  <variable name="w23_0" index="93" value="710"/>
  <variable name="w23_3" index="96" value="710"/>
  <variable name="w24_2" index="99" value="710"/>
  <variable name="w25_3" index="104" value="710"/>
  <variable name="w28_0" index="113" value="710"/>
  <variable name="w28_2" index="115" value="710"/>
  <variable name="w29_0" index="117" value="709.99999999822501"/>
  <variable name="w29_1" index="118" value="709.99999999822501"/>
  <variable name="w29_2" index="119" value="1.7750001468641622e-09"/>
  <variable name="w30_0" index="121" value="710"/>
  <variable name="w30_1" index="122" value="710"/>
  <variable name="w31_1" index="126" value="710"/>
  <variable name="w32_0" index="129" value="710"/>
  <variable name="w33_1" index="134" value="710"/>
  <variable name="w33_2" index="135" value="710"/>
  <variable name="w35_0" index="141" value="710"/>
  <variable name="w35_1" index="142" value="710"/>
  <variable name="w35_2" index="143" value="710"/>
  <variable name="w36_0" index="145" value="710"/>
  <variable name="w36_1" index="146" value="710"/>
  <variable name="w37_0" index="149" value="709.9999999999992"/>
  <variable name="w37_1" index="150" value="710.0000000001271"/>
  <variable name="w37_2" index="151" value="709.99999999800002"/>
  <variable name="w38_0" index="153" value="709.9999999977465"/>
  <variable name="w38_1" index="154" value="709.99999999949182"/>
  <variable name="w39_0" index="157" value="709.99999999999943"/>
  <variable name="w39_1" index="158" value="-2.2500001861658484e-10"/>
  <variable name="w39_2" index="159" value="710.00000000039449"/>
  <variable name="w40_3" index="164" value="710"/>
  <variable name="w41_1" index="166" value="710"/>
  <variable name="w42_1" index="170" value="709.9999999999992"/>
  <variable name="w43_3" index="176" value="710.00000000038028"/>
  <variable name="w44_0" index="177" value="709.99999999709223"/>
  <variable name="w48_1" index="194" value="710"/>
  <variable name="w48_2" index="195" value="710"/>
  <variable name="w49_2" index="199" value="710"/>
  <variable name="x0_20" index="221" value="1"/>
  <variable name="x1_16" index="267" value="1"/>
  <variable name="x2_49" index="350" value="1"/>
  <variable name="x3_9" index="360" value="-2.5000002068509437e-12"/>
  <variable name="x3_18" index="369" value="-3.1690143467124871e-13"/>
  <variable name="x3_23" index="374" value="1"/>
  <variable name="x3_27" index="378" value="-2.5000002068509457e-12"/>
  <variable name="x3_28" index="379" value="5.3169018483731376e-12"/>
  <variable name="x4_0" index="401" value="1"/>
  <variable name="x5_4" index="455" value="-4.753521520068659e-13"/>
  <variable name="x5_14" index="465" value="1.0000000000028169"/>
  <variable name="x5_43" index="494" value="4.753521520068659e-13"/>
  <variable name="x5_48" index="499" value="-2.8169016415221677e-12"/>
  <variable name="x6_4" index="505" value="1"/>
  <variable name="x7_25" index="576" value="1"/>
  <variable name="x8_8" index="609" value="1"/>
  <variable name="x9_40" index="691" value="1"/>
  <variable name="x10_6" index="707" value="1"/>
  <variable name="x11_19" index="770" value="1"/>
  <variable name="x12_21" index="822" value="1"/>
  <variable name="x13_33" index="884" value="1"/>
  <variable name="x14_30" index="931" value="1"/>
  <variable name="x15_10" index="961" value="1"/>
  <variable name="x16_0" index="1001" value="-1.4062501163536675e-13"/>
  <variable name="x16_1" index="1002" value="1.0000000000001406"/>
  <variable name="x17_0" index="1051" value="3.1690143467124164e-13"/>
  <variable name="x17_9" index="1060" value="2.5000002068509275e-12"/>
  <variable name="x17_35" index="1086" value="0.99999999999718314"/>
  <variable name="x18_28" index="1129" value="-2.8169016415221875e-12"/>
  <variable name="x18_31" index="1132" value="1"/>
  <variable name="x18_32" index="1133" value="2.8169016415221681e-12"/>
  <variable name="x19_27" index="1178" value="1"/>
  <variable name="x20_12" index="1213" value="1"/>
  <variable name="x21_46" index="1297" value="1"/>
  <variable name="x22_9" index="1310" value="1"/>
  <variable name="x23_2" index="1353" value="1"/>
  <variable name="x24_24" index="1425" value="1"/>
  <variable name="x25_3" index="1454" value="1"/>
  <variable name="x26_44" index="1545" value="1"/>
  <variable name="x27_43" index="1594" value="1"/>
  <variable name="x28_17" index="1618" value="1"/>
  <variable name="x29_27" index="1678" value="2.5000002068509457e-12"/>
  <variable name="x29_28" index="1679" value="0.9999999999975"/>
  <variable name="x30_34" index="1735" value="1"/>
  <variable name="x31_37" index="1788" value="0.99999999999918221"/>
  <variable name="x31_38" index="1789" value="8.1781015399030172e-13"/>
  <variable name="x32_0" index="1801" value="-1.4062501163536675e-13"/>
  <variable name="x32_1" index="1802" value="-1.4062501163536675e-13"/>
  <variable name="x32_40" index="1841" value="2.8125002327073349e-13"/>
  <variable name="x32_41" index="1842" value="1"/>
  <variable name="x33_11" index="1862" value="1"/>
  <variable name="x33_40" index="1891" value="-2.8125002327073349e-13"/>
  <variable name="x33_41" index="1892" value="2.8125002327073349e-13"/>
  <variable name="x34_45" index="1946" value="1"/>
  <variable name="x35_15" index="1966" value="1"/>
  <variable name="x36_29" index="2030" value="1"/>
  <variable name="x37_13" index="2064" value="1"/>
  <variable name="x37_14" index="2065" value="-2.8169016415221689e-12"/>
  <variable name="x37_35" index="2086" value="2.8169016415221689e-12"/>
  <variable name="x38_32" index="2133" value="0.99999999999718314"/>
  <variable name="x38_38" index="2139" value="2.8169016415221681e-12"/>
  <variable name="x39_18" index="2169" value="1.0000000000003169"/>
  <variable name="x39_41" index="2192" value="-2.8125002327073349e-13"/>
  <variable name="x40_7" index="2208" value="1"/>
  <variable name="x41_36" index="2287" value="1"/>
  <variable name="x42_39" index="2340" value="1"/>
  <variable name="x43_4" index="2355" value="4.753521520068659e-13"/>
  <variable name="x43_5" index="2356" value="1"/>
  <variable name="x43_43" index="2394" value="-4.753521520068659e-13"/>
  <variable name="x44_37" index="2438" value="8.1781015399030172e-13"/>
  <variable name="x44_38" index="2439" value="0.99999999999636524"/>
  <variable name="x44_48" index="2449" value="2.8169016415221677e-12"/>
  <variable name="x45_47" index="2498" value="1"/>
  <variable name="x46_42" index="2543" value="1"/>
  <variable name="x47_48" index="2599" value="1"/>
  <variable name="x48_22" index="2623" value="1"/>
  <variable name="x49_26" index="2677" value="1"/>
  <variable name="v0_0" index="2701" value="1"/>
  <variable name="v0_2" index="2703" value="1"/>
  <variable name="v1_0" index="2705" value="1"/>
  <variable name="v1_1" index="2706" value="1"/>
  <variable name="v1_2" index="2707" value="1"/>
  <variable name="v3_0" index="2713" value="5.3169018483731384e-12"/>
  <variable name="v3_2" index="2715" value="0.99999999999468314"/>
  <variable name="v4_0" index="2717" value="1"/>
  <variable name="v4_3" index="2720" value="1"/>
  <variable name="v5_1" index="2722" value="1.0000000000028169"/>
  <variable name="v5_2" index="2723" value="1.0000000000025"/>
  <variable name="v5_3" index="2724" value="-3.1690143467124164e-13"/>
  <variable name="v6_0" index="2725" value="1"/>
  <variable name="v6_3" index="2728" value="1"/>
  <variable name="v7_2" index="2731" value="1"/>
  <variable name="v8_0" index="2733" value="1"/>
  <variable name="v8_2" index="2735" value="1"/>
  <variable name="v9_1" index="2738" value="1"/>
  <variable name="v10_3" index="2744" value="1"/>
  <variable name="v11_1" index="2746" value="1"/>
  <variable name="v11_2" index="2747" value="1"/>
  <variable name="v12_2" index="2751" value="1"/>
  <variable name="v13_1" index="2754" value="1"/>
  <variable name="v14_0" index="2757" value="1"/>
  <variable name="v14_1" index="2758" value="1"/>
  <variable name="v15_0" index="2761" value="2.000000165480742e-11"/>
  <variable name="v15_3" index="2764" value="0.9999999999975"/>
  <variable name="v16_3" index="2768" value="1"/>
  <variable name="v17_0" index="2769" value="2.8169016415221689e-12"/>
  <variable name="v17_1" index="2770" value="1"/>
  <variable name="v17_2" index="2771" value="2.3415494895153068e-12"/>
  <variable name="v17_3" index="2772" value="3.1690143467124164e-13"/>
  <variable name="v18_0" index="2773" value="1.0000000000028169"/>
  <variable name="v18_1" index="2774" value="1.0000000000028169"/>
  <variable name="v18_2" index="2775" value="-2.8169016415221681e-12"/>
  <variable name="v19_2" index="2779" value="1"/>
  <variable name="v20_1" index="2782" value="1"/>
  <variable name="v20_2" index="2783" value="1"/>
  <variable name="v21_0" index="2785" value="1"/>
  <variable name="v22_3" index="2792" value="1"/>
  <variable name="v23_0" index="2793" value="1"/>
  <variable name="v23_3" index="2796" value="1"/>
  <variable name="v24_2" index="2799" value="1"/>
  <variable name="v25_3" index="2804" value="1"/>
  <variable name="v28_0" index="2813" value="1"/>
  <variable name="v28_2" index="2815" value="1"/>
  <variable name="v29_0" index="2817" value="0.9999999999975"/>
  <variable name="v29_1" index="2818" value="0.9999999999975"/>
  <variable name="v29_2" index="2819" value="2.5000002068509327e-12"/>
  <variable name="v30_0" index="2821" value="1"/>
  <variable name="v30_1" index="2822" value="1"/>
  <variable name="v31_1" index="2826" value="1"/>
  <variable name="v32_0" index="2829" value="1"/>
  <variable name="v32_3" index="2832" value="-2.8125002327073349e-13"/>
  <variable name="v33_1" index="2834" value="1"/>
  <variable name="v33_2" index="2835" value="1"/>
  <variable name="v35_0" index="2841" value="1"/>
  <variable name="v35_1" index="2842" value="1"/>
  <variable name="v35_2" index="2843" value="1"/>
  <variable name="v36_0" index="2845" value="1"/>
  <variable name="v36_1" index="2846" value="1"/>
  <variable name="v37_0" index="2849" value="0.99999999999968214"/>
  <variable name="v37_1" index="2850" value="1.000000000000159"/>
  <variable name="v37_2" index="2851" value="0.99999999999718314"/>
  <variable name="v38_0" index="2853" value="0.99999999999718314"/>
  <variable name="v38_1" index="2854" value="0.99999999999936473"/>
  <variable name="v38_2" index="2855" value="3.1763480734525729e-13"/>
  <variable name="v39_0" index="2857" value="1"/>
  <variable name="v39_1" index="2858" value="-3.1690143467124629e-13"/>
  <variable name="v39_2" index="2859" value="1.0000000000004932"/>
  <variable name="v40_3" index="2864" value="1"/>
  <variable name="v41_1" index="2866" value="1"/>
  <variable name="v42_1" index="2870" value="1"/>
  <variable name="v43_3" index="2876" value="1.0000000000004754"/>
  <variable name="v44_0" index="2877" value="0.99999999999636524"/>
  <variable name="v44_2" index="2879" value="4.0890507699514975e-13"/>
  <variable name="v48_1" index="2894" value="1"/>
  <variable name="v48_2" index="2895" value="1"/>
  <variable name="v49_2" index="2899" value="1"/>
 </variables>
</CPLEXSolution>
